File: D:\ML4VRP2024\Instances\CVRP\json\X-n139-k10.json exists.
Route #1: 56 76 122 138 28 103 21 18 55 46 43 111 1 
Route #2: 95 126 52 87 99 2 36 125 25 137 114 85 24 118 
Route #3: 3 71 81 102 135 33 14 134 40 37 17 11 100 67 
Route #4: 124 16 32 9 26 23 4 38 69 94 108 22 112 
Route #5: 29 57 44 72 117 12 90 113 96 5 6 19 66 49 129 53 
Route #6: 7 30 84 51 39 8 15 65 48 61 60 42 59 
Route #7: 88 109 10 70 62 74 50 123 27 115 34 131 97 
Route #8: 79 20 45 110 73 35 58 13 31 80 41 92 78 
Route #9: 98 91 89 104 63 86 136 83 68 116 128 101 119 47 
Route #10: 54 121 120 75 133 64 127 130 93 107 132 77 106 82 105 
